words_hard_train/8444.qaiger
aag 46 14 0 1 32
2
4
8
10
18
20
24
26
36
38
48
56
68
76
93
6 3 5
12 9 11
14 7 13
16 2 4
22 18 20
28 25 27
30 22 29
32 24 26
34 31 33
40 37 39
42 35 41
44 36 38
46 43 45
50 47 48
52 17 51
54 46 49
58 55 56
60 52 59
62 14 61
64 8 10
66 63 65
70 67 68
72 66 69
74 71 73
78 77 37
80 78 3
82 25 9
84 82 19
86 80 84
88 55 51
90 86 89
92 75 90
i0 1 x1[4]
i1 2 y1[4]
i2 1 x1[5]
i3 2 y1[5]
i4 1 x1[0]
i5 2 y1[0]
i6 1 x1[1]
i7 2 y1[1]
i8 1 x1[2]
i9 2 y1[2]
i10 2 y1[3]
i11 1 x1[3]
i12 2 y1[6]
i13 1 x1[7]
o0 bool[0]
c
simplified
  !=
    1 x1
    and
      subtract
        1 x1
        unary minus
          2 y1
      -184
