words_hard_train/8444.qaiger.qdimacs
p cnf 46 97
a 1 4 38 9 12 18 28 0
e 2 3 5 6 7 8 10 11 13 14 15 16 17 19 20 21 22 23 24 25 26 27 29 30 31 32 33 34 35 36 37 39 40 41 42 43 44 45 46 0
1 2 3 0
-1 -3 0
-2 -3 0
4 5 6 0
-4 -6 0
-5 -6 0
3 6 7 0
-3 -7 0
-6 -7 0
-1 -2 8 0
1 -8 0
2 -8 0
-9 -10 11 0
9 -11 0
10 -11 0
12 13 14 0
-12 -14 0
-13 -14 0
-11 14 15 0
11 -15 0
-14 -15 0
-12 -13 16 0
12 -16 0
13 -16 0
15 16 17 0
-15 -17 0
-16 -17 0
18 19 20 0
-18 -20 0
-19 -20 0
17 20 21 0
-17 -21 0
-20 -21 0
-18 -19 22 0
18 -22 0
19 -22 0
21 22 23 0
-21 -23 0
-22 -23 0
23 -24 25 0
-23 -25 0
24 -25 0
8 25 26 0
-8 -26 0
-25 -26 0
-23 24 27 0
23 -27 0
-24 -27 0
27 -28 29 0
-27 -29 0
28 -29 0
-26 29 30 0
26 -30 0
-29 -30 0
-7 30 31 0
7 -31 0
-30 -31 0
-4 -5 32 0
4 -32 0
5 -32 0
31 32 33 0
-31 -33 0
-32 -33 0
33 -34 35 0
-33 -35 0
34 -35 0
-33 34 36 0
33 -36 0
-34 -36 0
35 36 37 0
-35 -37 0
-36 -37 0
38 18 39 0
-38 -39 0
-18 -39 0
-39 1 40 0
39 -40 0
-1 -40 0
12 4 41 0
-12 -41 0
-4 -41 0
-41 9 42 0
41 -42 0
-9 -42 0
-40 -42 43 0
40 -43 0
42 -43 0
27 25 44 0
-27 -44 0
-25 -44 0
-43 44 45 0
43 -45 0
-44 -45 0
37 -45 46 0
-37 -46 0
45 -46 0
-46 0
